<number of tasks>
11

<cycle time>
94

<task times>
1 4
2 38
3 45
4 12
5 10
6 8
7 12
8 10
9 2
10 10
11 34

<precedence relations>
1,4
2,4
2,5
3,11
4,6
5,7
6,8
7,9
8,10
9,10
10,11

<setup times forward>
1,2:1
1,3:1
1,5:1
2,1:1
2,4:1
3,1:1
3,4:1
3,6:1
3,7:1
3,8:1
3,9:1
3,10:1
3,11:1
4,3:1
4,5:1
5,1:1
5,4:1
5,6:1
5,7:1
5,8:1
6,3:1
6,5:1
7,3:1
8,3:1
8,5:1
9,3:1
10,3:1

<setup times backward>
1,1:1
1,2:2
1,3:2
1,5:2
1,7:1
1,9:1
2,2:1
2,3:1
3,2:1
3,3:1
3,5:1
4,1:1
4,2:2
4,3:2
4,4:1
4,5:2
4,7:1
4,9:1
5,2:1
5,3:1
5,5:1
6,1:1
6,2:2
6,3:2
6,4:1
6,5:2
6,6:1
6,7:1
6,9:1
7,1:1
7,2:2
7,3:2
7,4:1
7,5:2
7,6:1
7,7:1
7,8:1
8,1:1
8,2:2
8,3:2
8,4:1
8,5:2
8,6:1
8,7:1
8,8:1
8,9:1
9,1:1
9,2:2
9,3:2
9,4:1
9,5:2
9,6:1
9,7:1
9,8:1
9,9:1
10,1:1
10,2:2
10,3:2
10,4:1
10,5:2
10,6:1
10,7:1
10,8:1
10,9:1
10,10:1
11,1:1
11,2:2
11,3:2
11,4:1
11,5:2
11,6:1
11,7:1
11,8:1
11,9:1
11,10:1
11,11:1

<end>

<optimal SALBP-1 value>
2


<rand seed>
467321153

